cost: 1124.94
Route 1:           0   17   49   43    0
Route 2:           0   24   13    3    4   12   14    0
Route 3:           0   26    2   42   22   27    8    0
Route 4:           0   28   50   39   10   23   20   18    0
Route 5:           0   32    6    9   36    0
Route 6:           0   35   21   33   31    1   46   29   11   25    0
Route 7:           0   37   30   44   38   15   47    0
Route 8:           0   40   16    5   45    0
Route 9:           0   48   41    7   19   34    0
